;; unsat

(declare-const x1 sl.list.loc)
(declare-const x2 sl.list.loc)
(declare-const x3 sl.list.loc)
(declare-const x4 sl.list.loc)
(declare-const x5 sl.list.loc)
(declare-const x6 sl.list.loc)
(declare-const x7 sl.list.loc)
(declare-const x8 sl.list.loc)
(declare-const x9 sl.list.loc)
(declare-const x10 sl.list.loc)
(declare-const x11 sl.list.loc)
(declare-const x12 sl.list.loc)
(declare-const x13 sl.list.loc)
(declare-const x14 sl.list.loc)
(declare-const x15 sl.list.loc)
(declare-const x16 sl.list.loc)
(declare-const x17 sl.list.loc)

(assert (and (sl.sepcon (sl.list.eq sl.list.null sl.list.null)
 (sl.sepcon (sl.sepcon (sl.sepcon (sl.sepcon (sl.sepcon (sl.sepcon (sl.sepcon (sl.sepcon (sl.sepcon (sl.sepcon (sl.sepcon (sl.sepcon (sl.sepcon (sl.sepcon (sl.sepcon (sl.sepcon (sl.list.next x17 x15)
 (sl.list.seg x6 x15)
)
 (sl.list.next x10 x15)
)
 (sl.list.seg x5 x2)
)
 (sl.list.next x8 x10)
)
 (sl.list.next x1 x4)
)
 (sl.list.next x2 x1)
)
 (sl.list.next x16 x15)
)
 (sl.list.next x9 x1)
)
 (sl.list.seg x15 x3)
)
 (sl.list.seg x3 x5)
)
 (sl.list.next x7 x14)
)
 (sl.list.next x11 x2)
)
 (sl.list.next x12 x3)
)
 (sl.list.next x14 x2)
)
 (sl.list.next x13 x14)
)
 (sl.list.next x4 x7)
)
)
 (not (sl.sepcon (sl.sepcon (sl.sepcon (sl.sepcon (sl.sepcon (sl.sepcon (sl.sepcon (sl.sepcon (sl.sepcon (sl.list.seg x13 x14)
 (sl.list.seg x11 x2)
)
 (sl.list.seg x17 x15)
)
 (sl.list.seg x16 x15)
)
 (sl.list.seg x8 x10)
)
 (sl.list.seg x9 x4)
)
 (sl.list.seg x10 x15)
)
 (sl.list.seg x6 x3)
)
 (sl.list.seg x12 x2)
)
 (sl.list.seg x4 x1)
)
))
)

